116
24
333
326
59
263
161
57
600
65
95
16
103
116
325
183
63
260
215
0
79
90
311
264
43
684
189
355
61
145
33
42
120
83
507
126
279
110
1205
1302
0
675
191
190
58
74
48
79
174
224
158
43
79
165
47
27
344
218
93
76
214
239
434
121
866
0
375
68
85
636
475
1298
163
82
167
94
140
67
399
14
345
146
336
1119
473
273
34
483
35
45
305
221
60
478
395
151
293
859
23
68
